language ESSENCE' 1.0

letting fixed be 
[
    [2,0,0,0,4,1,0,0,6],
    [4,0,0,6,0,2,0,1,0],
    [0,1,6,0,9,0,0,0,4],
    [3,0,0,1,2,9,6,4,0],
    [1,4,2,0,6,0,5,9,0],
    [0,6,9,5,0,4,0,0,1],
    [5,8,4,2,1,6,3,7,9],
    [9,2,0,4,0,8,1,6,5],
    [6,0,1,9,0,0,4,8,2]
]